Cost: 475
0-26-7-35-8-46-34-0
0-19-14-11-38-10-0
0-33-1-43-42-41-23-16-0
0-6-49-24-18-44-3-17-0
0-28-21-47-48-30-0
0-12-9-32-40-0
0-27-5-29-45-4-0
Cost: 475
0-17-3-44-18-24-49-6-0
0-33-1-43-42-41-23-16-0
0-34-46-8-35-7-26-0
0-27-5-29-45-4-0
0-28-21-47-48-30-0
0-12-9-32-40-0
0-10-38-11-14-19-0
Cost: 475
0-26-7-35-8-46-34-0
0-19-14-11-38-10-0
0-33-1-43-42-41-23-16-0
0-6-49-24-18-44-3-17-0
0-28-21-47-48-30-0
0-12-9-32-40-0
0-27-5-29-45-4-0
Cost: 475
0-4-45-29-5-27-0
0-16-23-41-42-43-1-33-0
0-17-3-44-18-24-49-6-0
0-28-21-47-48-30-0
0-12-9-32-40-0
0-26-7-35-8-46-34-0
0-19-14-11-38-10-0
Cost: 475
0-33-1-43-42-41-23-16-0
0-4-45-29-48-30-0
0-10-38-11-14-19-0
0-27-5-47-21-28-0
0-40-32-9-12-0
0-6-49-24-18-44-3-17-0
0-34-46-8-35-7-26-0
Cost: 475
0-34-46-8-35-7-26-0
0-10-38-11-14-19-0
0-16-23-41-42-43-1-33-0
0-12-9-32-40-0
0-28-21-47-48-30-0
0-4-45-29-5-27-0
0-6-49-24-18-44-3-17-0
Cost: 475
0-26-7-35-8-46-34-0
0-27-5-29-45-4-0
0-33-1-43-42-41-23-16-0
0-40-32-9-12-0
0-30-48-47-21-28-0
0-10-38-11-14-19-0
0-6-49-24-18-44-3-17-0
Cost: 475
0-26-7-35-8-46-34-0
0-27-5-29-45-4-0
0-33-1-43-42-41-23-16-0
0-40-32-9-12-0
0-30-48-47-21-28-0
0-10-38-11-14-19-0
0-6-49-24-18-44-3-17-0
Cost: 475
0-26-7-35-8-46-34-0
0-27-5-29-45-4-0
0-33-1-43-42-41-23-16-0
0-40-32-9-12-0
0-30-48-47-21-28-0
0-10-38-11-14-19-0
0-6-49-24-18-44-3-17-0
Cost: 475
0-26-7-35-8-46-34-0
0-27-5-29-45-4-0
0-33-1-43-42-41-23-16-0
0-40-32-9-12-0
0-30-48-47-21-28-0
0-10-38-11-14-19-0
0-6-49-24-18-44-3-17-0
Cost: 475
0-40-32-9-12-0
0-19-14-11-38-10-0
0-6-49-24-18-44-3-17-0
0-33-1-43-42-41-23-16-0
0-26-7-35-8-46-34-0
0-27-5-29-45-4-0
0-28-21-47-48-30-0
Cost: 475
0-40-32-9-12-0
0-19-14-11-38-10-0
0-6-49-24-18-44-3-17-0
0-33-1-43-42-41-23-16-0
0-26-7-35-8-46-34-0
0-27-5-29-45-4-0
0-28-21-47-48-30-0
Cost: 475
0-40-32-9-12-0
0-19-14-11-38-10-0
0-6-49-24-18-44-3-17-0
0-33-1-43-42-41-23-16-0
0-26-7-35-8-46-34-0
0-27-5-29-45-4-0
0-28-21-47-48-30-0
Cost: 475
0-27-5-29-45-4-0
0-28-21-47-48-30-0
0-26-7-35-8-46-34-0
0-12-9-32-40-0
0-19-14-11-38-10-0
0-16-23-41-42-43-1-33-0
0-17-3-44-18-24-49-6-0
Cost: 475
0-40-32-9-12-0
0-19-14-11-38-10-0
0-6-49-24-18-44-3-17-0
0-33-1-43-42-41-23-16-0
0-26-7-35-8-46-34-0
0-27-5-29-45-4-0
0-28-21-47-48-30-0
Cost: 475
0-40-32-9-12-0
0-19-14-11-38-10-0
0-6-49-24-18-44-3-17-0
0-33-1-43-42-41-23-16-0
0-26-7-35-8-46-34-0
0-27-5-29-45-4-0
0-28-21-47-48-30-0
Cost: 475
0-10-38-11-14-19-0
0-6-49-24-18-44-3-17-0
0-4-45-29-5-27-0
0-30-48-47-21-28-0
0-16-23-41-42-43-1-33-0
0-34-46-8-35-7-26-0
0-40-32-9-12-0
Cost: 475
0-6-49-24-18-44-3-17-0
0-40-32-9-12-0
0-27-5-29-45-4-0
0-19-14-11-38-10-0
0-33-1-43-42-41-23-16-0
0-28-21-47-48-30-0
0-26-7-35-8-46-34-0
Cost: 475
0-30-48-47-21-28-0
0-33-1-43-42-41-23-16-0
0-27-5-29-45-4-0
0-12-9-32-40-0
0-10-38-11-14-19-0
0-6-49-24-18-44-3-17-0
0-34-46-8-35-7-26-0
Cost: 475
0-30-48-47-21-28-0
0-33-1-43-42-41-23-16-0
0-27-5-29-45-4-0
0-12-9-32-40-0
0-10-38-11-14-19-0
0-6-49-24-18-44-3-17-0
0-34-46-8-35-7-26-0
Cost: 475
0-34-46-8-35-7-26-0
0-33-1-43-42-41-23-16-0
0-4-45-29-5-27-0
0-17-3-44-18-24-49-6-0
0-28-21-47-48-30-0
0-10-38-11-14-19-0
0-40-32-9-12-0
Cost: 475
0-34-46-8-35-7-26-0
0-33-1-43-42-41-23-16-0
0-4-45-29-5-27-0
0-17-3-44-18-24-49-6-0
0-28-21-47-48-30-0
0-10-38-11-14-19-0
0-40-32-9-12-0
Cost: 475
0-27-5-29-45-4-0
0-10-38-11-14-19-0
0-33-1-43-42-41-23-16-0
0-30-48-47-21-28-0
0-17-3-44-18-24-49-6-0
0-34-46-8-35-7-26-0
0-12-9-32-40-0
Cost: 475
0-34-46-8-35-7-26-0
0-33-1-43-42-41-23-16-0
0-4-45-29-5-27-0
0-17-3-44-18-24-49-6-0
0-28-21-47-48-30-0
0-10-38-11-14-19-0
0-40-32-9-12-0
Cost: 475
0-6-49-24-18-44-3-17-0
0-40-32-9-12-0
0-27-5-29-45-4-0
0-19-14-11-38-10-0
0-33-1-43-42-41-23-16-0
0-28-21-47-48-30-0
0-26-7-35-8-46-34-0
Cost: 475
0-30-48-47-21-28-0
0-33-1-43-42-41-23-16-0
0-27-5-29-45-4-0
0-12-9-32-40-0
0-10-38-11-14-19-0
0-6-49-24-18-44-3-17-0
0-34-46-8-35-7-26-0
Cost: 475
0-27-5-47-21-28-0
0-34-46-8-35-7-26-0
0-17-3-44-18-24-49-6-0
0-16-23-41-42-43-1-33-0
0-19-14-11-38-10-0
0-40-32-9-12-0
0-4-45-29-48-30-0
Cost: 480
0-34-46-8-35-7-26-0
0-40-32-9-12-0
0-30-28-21-47-48-0
0-6-49-24-18-44-3-17-0
0-33-1-43-42-41-23-16-0
0-19-14-11-38-10-0
0-45-5-29-27-4-0
Cost: 481
0-28-21-47-48-30-0
0-17-3-44-18-24-49-6-0
0-12-32-9-40-0
0-29-5-27-45-4-0
0-10-38-11-14-19-0
0-33-1-43-42-41-23-16-0
0-34-46-8-35-7-26-0
Cost: 475
0-6-49-24-18-44-3-17-0
0-33-1-43-42-41-23-16-0
0-40-32-9-12-0
0-28-21-47-48-30-0
0-10-38-11-14-19-0
0-34-46-8-35-7-26-0
0-27-5-29-45-4-0
Cost: 475
0-33-1-43-42-41-23-16-0
0-10-38-11-14-19-0
0-27-5-29-45-4-0
0-12-9-32-40-0
0-30-48-47-21-28-0
0-17-3-44-18-24-49-6-0
0-26-7-35-8-46-34-0
